
Log started (V11.0.0) Fri May 16 19:45:02 2008

Tried aggregator 1 time.
Reduced MIP has 250 rows, 10001 columns, and 20050 nonzeros.
Presolve time =    0.08 sec.
Clique table members: 200.
MIP emphasis: balance optimality and feasibility.
MIP search method: dynamic search.
Parallel mode: none, using 1 thread.
Root relaxation solution time =    0.67 sec.

        Nodes                                         Cuts/
   Node  Left     Objective  IInf  Best Integer     Best Node    ItCnt     Gap

*     0+    0                        21991.0000      400.3597      651   98.18%
*     0+    0                          402.0000      400.3597      651    0.41%
      0     0      401.0000    66      402.0000      Fract: 5      661    0.25%
      0     0      401.0000    76      402.0000     Covers: 2      682    0.25%
      0     0      401.0000    88      402.0000     Covers: 2      717    0.25%
      0     2      401.0000    88      402.0000      401.0000      717    0.25%
    100    48      401.0000    61      402.0000      401.0000    32023    0.25%
    200    95    infeasible            402.0000      401.0000    54309    0.25%
    300   144      401.0000    77      402.0000      401.0000    76294    0.25%
    400   170    infeasible            402.0000      401.0000   119830    0.25%
    500   204    infeasible            402.0000      401.0000   150786    0.25%
    600   178    infeasible            402.0000      401.0000   164851    0.25%
    700   143      401.0000    79      402.0000      401.0000   174546    0.25%
    800   134      401.0000    69      402.0000      401.0000   180841    0.25%
    900   172      401.0000    76      402.0000      401.0000   190528    0.25%
   1000   218      401.0000    85      402.0000      401.0000   200618    0.25%
Elapsed time =  67.84 sec. (tree size =  1.33 MB, solutions = 2)
   1100   276      401.0000    70      402.0000      401.0000   207895    0.25%
   1200   336      401.0000    63      402.0000      401.0000   214633    0.25%
   1300   392    infeasible            402.0000      401.0000   221997    0.25%
   1400   456      401.0000    91      402.0000      401.0000   230549    0.25%
   1500   526      401.0000    74      402.0000      401.0000   239217    0.25%
   1600   592      401.0000    57      402.0000      401.0000   248479    0.25%
   1700   624    infeasible            402.0000      401.0000   262369    0.25%
   1800   652    infeasible            402.0000      401.0000   276480    0.25%
*  1808+    1                          401.0000      401.0000   278858    0.00%

Cover cuts applied:  82
Gomory fractional cuts applied:  3

Solution pool: 3 solutions saved.

MIP - Integer optimal solution:  Objective = 4.0100000000e+002
Solution time =   92.95 sec.  Iterations = 278858  Nodes = 1808


Incumbent solution
Variable Name           Solution Value
Cmax                        401.000000
X_1_35                        1.000000
X_2_30                        1.000000
X_3_27                        1.000000
X_4_49                        1.000000
X_5_6                         1.000000
X_6_5                         1.000000
X_7_22                        1.000000
X_8_4                         1.000000
X_9_26                        1.000000
X_10_4                        1.000000
X_11_43                       1.000000
X_12_1                        1.000000
X_13_43                       1.000000
X_14_11                       1.000000
X_15_45                       1.000000
X_16_1                        1.000000
X_17_42                       1.000000
X_18_21                       1.000000
X_19_29                       1.000000
X_20_50                       1.000000
X_21_44                       1.000000
X_22_33                       1.000000
X_23_41                       1.000000
X_24_2                        1.000000
X_25_10                       1.000000
X_26_2                        1.000000
X_27_47                       1.000000
X_28_46                       1.000000
X_29_12                       1.000000
X_30_12                       1.000000
X_31_34                       1.000000
X_32_32                       1.000000
X_33_5                        1.000000
X_34_30                       1.000000
X_35_15                       1.000000
X_36_30                       1.000000
X_37_3                        1.000000
X_38_21                       1.000000
X_39_19                       1.000000
X_40_20                       1.000000
X_41_39                       1.000000
X_42_17                       1.000000
X_43_49                       1.000000
X_44_19                       1.000000
X_45_6                        1.000000
X_46_13                       1.000000
X_47_9                        1.000000
X_48_37                       1.000000
X_49_50                       1.000000
X_50_8                        1.000000
X_51_37                       1.000000
X_52_22                       1.000000
X_53_47                       1.000000
X_54_26                       1.000000
X_55_34                       1.000000
X_56_16                       1.000000
X_57_47                       1.000000
X_58_1                        1.000000
X_59_28                       1.000000
X_60_47                       1.000000
X_61_23                       1.000000
X_62_21                       1.000000
X_63_23                       1.000000
X_64_44                       1.000000
X_65_29                       1.000000
X_66_16                       1.000000
X_67_25                       1.000000
X_68_40                       1.000000
X_69_8                        1.000000
X_70_20                       1.000000
X_71_35                       1.000000
X_72_28                       1.000000
X_73_14                       1.000000
X_74_14                       1.000000
X_75_31                       1.000000
X_76_46                       1.000000
X_77_48                       1.000000
X_78_18                       1.000000
X_79_18                       1.000000
X_80_26                       1.000000
X_81_35                       1.000000
X_82_7                        1.000000
X_83_18                       1.000000
X_84_14                       1.000000
X_85_33                       1.000000
X_86_19                       1.000000
X_87_3                        1.000000
X_88_9                        1.000000
X_89_11                       1.000000
X_90_4                        1.000000
X_91_45                       1.000000
X_92_10                       1.000000
X_93_5                        1.000000
X_94_20                       1.000000
X_95_6                        1.000000
X_96_18                       1.000000
X_97_17                       1.000000
X_98_28                       1.000000
X_99_31                       1.000000
X_100_25                      1.000000
X_101_31                      1.000000
X_102_41                      1.000000
X_103_13                      1.000000
X_104_33                      1.000000
X_105_15                      1.000000
X_106_36                      1.000000
X_107_27                      1.000000
X_108_19                      1.000000
X_109_42                      1.000000
X_110_26                      1.000000
X_111_2                       1.000000
X_112_13                      1.000000
X_113_39                      1.000000
X_114_32                      1.000000
X_115_17                      1.000000
X_116_20                      1.000000
X_117_10                      1.000000
X_118_38                      1.000000
X_119_43                      1.000000
X_120_24                      1.000000
X_121_24                      1.000000
X_122_16                      1.000000
X_123_29                      1.000000
X_124_7                       1.000000
X_125_45                      1.000000
X_126_48                      1.000000
X_127_41                      1.000000
X_128_28                      1.000000
X_129_25                      1.000000
X_130_16                      1.000000
X_131_32                      1.000000
X_132_3                       1.000000
X_133_38                      1.000000
X_134_30                      1.000000
X_135_24                      1.000000
X_136_12                      1.000000
X_137_42                      1.000000
X_138_15                      1.000000
X_139_34                      1.000000
X_140_41                      1.000000
X_141_33                      1.000000
X_142_27                      1.000000
X_143_12                      1.000000
X_144_44                      1.000000
X_145_25                      1.000000
X_146_46                      1.000000
X_147_36                      1.000000
X_148_48                      1.000000
X_149_9                       1.000000
X_150_40                      1.000000
X_151_10                      1.000000
X_152_39                      1.000000
X_153_2                       1.000000
X_154_15                      1.000000
X_155_34                      1.000000
X_156_36                      1.000000
X_157_14                      1.000000
X_158_35                      1.000000
X_159_11                      1.000000
X_160_13                      1.000000
X_161_21                      1.000000
X_162_32                      1.000000
X_163_24                      1.000000
X_164_42                      1.000000
X_165_40                      1.000000
X_166_29                      1.000000
X_167_50                      1.000000
X_168_49                      1.000000
X_169_37                      1.000000
X_170_36                      1.000000
X_171_7                       1.000000
X_172_23                      1.000000
X_173_9                       1.000000
X_174_8                       1.000000
X_175_17                      1.000000
X_176_4                       1.000000
X_177_6                       1.000000
X_178_38                      1.000000
X_179_8                       1.000000
X_180_23                      1.000000
X_181_48                      1.000000
X_182_43                      1.000000
X_183_37                      1.000000
X_184_39                      1.000000
X_185_49                      1.000000
X_186_5                       1.000000
X_187_27                      1.000000
X_188_31                      1.000000
X_189_50                      1.000000
X_190_44                      1.000000
X_191_11                      1.000000
X_192_22                      1.000000
X_193_38                      1.000000
X_194_40                      1.000000
X_195_45                      1.000000
X_196_3                       1.000000
X_197_22                      1.000000
X_198_46                      1.000000
X_199_7                       1.000000
X_200_1                       1.000000
All other variables in the range 1-10001 are 0.
